NAME          BLANK   
ROWS
 N  OBJROW
 L  R0000000
COLUMNS
    C0000000  OBJROW     -10.          R0000000  526.        
    C0000001  OBJROW     -201.         R0000000  699.        
    C0000002  OBJROW     -976.         R0000000  679.        
    C0000003  OBJROW     -754.         R0000000  461.        
    C0000004  OBJROW     -786.         R0000000  331.        
    C0000005  OBJROW     -951.         R0000000  320.        
    C0000006  OBJROW     -389.         R0000000  625.        
    C0000007  OBJROW     -118.         R0000000  553.        
    C0000008  OBJROW     -84.          R0000000  658.        
    C0000009  OBJROW     -604.         R0000000  98.         
    C0000010  OBJROW     -628.         R0000000  868.        
    C0000011  OBJROW     -910.         R0000000  134.        
    C0000012  OBJROW     -621.         R0000000  707.        
    C0000013  OBJROW     -955.         R0000000  132.        
    C0000014  OBJROW     -955.         R0000000  18.         
    C0000015  OBJROW     -139.         R0000000  856.        
    C0000016  OBJROW     -743.         R0000000  691.        
    C0000017  OBJROW     -947.         R0000000  537.        
    C0000018  OBJROW     -558.         R0000000  130.        
RHS
    RHS       R0000000  14228.      
BOUNDS
 BV BOUND     C0000000  1.          
 BV BOUND     C0000001  1.          
 BV BOUND     C0000002  1.          
 BV BOUND     C0000003  1.          
 BV BOUND     C0000004  1.          
 BV BOUND     C0000005  1.          
 BV BOUND     C0000006  1.          
 BV BOUND     C0000007  1.          
 BV BOUND     C0000008  1.          
 BV BOUND     C0000009  1.          
 BV BOUND     C0000010  1.          
 BV BOUND     C0000011  1.          
 BV BOUND     C0000012  1.          
 BV BOUND     C0000013  1.          
 BV BOUND     C0000014  1.          
 BV BOUND     C0000015  1.          
 BV BOUND     C0000016  1.          
 BV BOUND     C0000017  1.          
 BV BOUND     C0000018  1.          
ENDATA
